c A SAT instance generated from a 3-CNF formula that had 24 clauses and 12 variables
p cnf 12 24
10 -9 -7 0
11 4 -5 0
-5 -1 -11 0
5 -8 11 0
-8 2 -12 0
12 -5 -6 0
-8 -11 10 0
-2 12 7 0
-2 1 -4 0
-8 -1 6 0
2 -5 -8 0
2 12 10 0
2 12 -5 0
-1 4 3 0
-9 -4 -5 0
3 -6 -12 0
-12 9 2 0
1 11 7 0
10 3 -2 0
-6 10 -11 0
-7 2 -5 0
-4 11 7 0
9 11 3 0
9 -6 -3 0
